1121.42 0
0 91 109 21 26 28 32 29 35 36 34 31 30 33 27 24 22 25 19 23 20 114 90 0
0 52 54 57 59 65 61 62 64 66 63 60 56 58 55 53 105 0
0 106 73 76 68 77 79 80 78 72 75 74 71 70 69 67 107 0
0 87 92 93 96 94 97 115 110 98 116 100 103 104 99 101 102 0
0 89 18 118 108 17 16 12 8 13 14 15 9 7 83 117 112 88 0
0 82 111 86 85 84 113 6 5 10 11 4 3 1 2 81 119 120 0
0 40 43 45 48 51 50 49 47 46 44 41 42 39 38 37 95 0
